%%% static parameters %%%
timespan = 1;
Clients_N = [4000];
Demand_W = [15];
Lt0 = [4];
Lt1 = [4];
SS_ = [0.85];
DS_D = [20];
K = [200];
MA = [500];
HC = [0.05];
%%% dynamic parameters %%%
lost_ratio_sales_ret_th = 0.0008052175127759092;
lost_ratio_sales_ret_w = 23;
lost_ratio_sales_dis_th = 0.0008069766385445946;
lost_ratio_sales_dis_w = 53;
lost_ratio_sales_fac_th = 0.00012573805012700345;
lost_ratio_sales_fac_w = 78;
stock_customer_MA_mean_relative_th = 0.1535006963030111;
stock_customer_MA_mean_relative_w = 51;
stock_distributor_MA_mean_relative_th = 0.31391455505579313;
stock_distributor_MA_mean_relative_w = 24;
stock_retailer_MA_mean_relative_th = 0.9821409610144652;
stock_retailer_MA_mean_relative_w = 27;
stock_factory_MA_mean_relative_th = 0.36471925992900167;
stock_factory_MA_mean_relative_w = 30;
